c PicoSAT SAT Solver Version 936
c Copyright (c) 2006 - 2010 Armin Biere JKU Linz
c gcc -Wall -Wextra -DNDEBUG -O3 -fomit-frame-pointer -finline-limit=1000000
c
c using 2 as default phase
c
c parsing /home/necavit/workspace_li/sat-solver/sample_problems/vars-200-8.cnf
c parsed header 'p cnf 200 850'
c initialized 200 variables
c found 850 non trivial clauses
c
c random number generator seed 0
c 
c  seconds     variables   original    learned     agility
c         level        used      conflicts    limit          MB
c 
c s   0.0   0.0   200   0.0   850     0     0     0   0.0   0.1 
c 
c initial reduction limit 425 clauses
c 
c +   0.0  19.3   200  89.5   850   100   100   467  10.2   0.1 
c R   0.0  19.3   200  89.5   850   100   100   467  10.2   0.1 
c +   0.0  15.0   200  99.0   850   250   250   513  20.6   0.1 
c N   0.0  14.3   200  99.5   850   403   403   513  25.3   0.1 
c +   0.0  14.2   200  99.5   850   475   475   564  27.0   0.1 
c +   0.0  12.5   200  99.5   850   812   525   620  29.9   0.1 
c N   0.0  11.5   200  99.5   850  1205   602   620  30.2   0.2 
c +   0.0  11.4   200  99.5   850  1317   400   682  30.2   0.1 
c +   0.0  10.7   200  99.5   850  2074   467   750  30.9   0.1 
c N   0.0  10.3   200 100.0   850  3208   458   750  30.8   0.1 
c +   0.0  10.3   200 100.0   850  3209   459   825  30.8   0.1 
c +   0.0   9.7   200 100.0   850  4911   485   907  31.8   0.1 
c s   0.1   9.1   199 100.0   841  7230   366   907  31.3   0.1 
c N   0.1   9.2   199 100.0   841  7330   466   907  30.2   0.1 
c +   0.1   9.2   199 100.0   841  7464   600   997  30.7   0.1 
c N   0.1   9.2   199 100.0   841  7633   769   997  29.8   0.2 
c N   0.1   9.3   199 100.0   841  8437   563   997  31.9   0.1 
c N   0.1   9.2   199 100.0   841 10443   560   997  31.8   0.1 
c +   0.1   9.1   199 100.0   841 11293   905  1096  29.4   0.2 
c s   0.1   9.0   198 100.0   834 12173   391  1096  29.5   0.1 
c 
c  seconds     variables   original    learned     agility
c         level        used      conflicts    limit          MB
c 
c N   0.1   9.0   198 100.0   834 12273   491  1096  30.0   0.1 
c N   0.1   9.0   198 100.0   834 12573   791  1096  30.6   0.2 
c 1   0.1   9.0   198 100.0   834 12829  1047  1096  29.3   0.2 
c 
c  seconds     variables   original    learned     agility
c         level        used      conflicts    limit          MB
c 
s SATISFIABLE
v 1 2 3 4 5 6 7 -8 9 10 -11 12 -13 -14 -15 16 -17 -18 -19 -20 21 -22 -23 24 -25
v 26 27 -28 29 30 31 32 33 34 -35 -36 -37 -38 39 40 -41 42 -43 -44 45 -46 47 48
v 49 -50 -51 -52 53 54 -55 -56 -57 -58 -59 -60 -61 62 63 64 65 -66 67 68 69 -70
v -71 72 73 74 -75 -76 -77 78 -79 -80 81 -82 83 -84 85 -86 -87 -88 -89 90 91 92
v 93 -94 95 -96 97 98 -99 -100 101 -102 -103 -104 -105 106 -107 108 -109 -110
v 111 112 -113 114 115 116 117 -118 -119 -120 121 122 123 124 125 126 127 128
v 129 130 -131 -132 -133 -134 135 136 -137 -138 -139 -140 -141 142 -143 144 145
v -146 147 -148 -149 150 151 -152 -153 154 155 156 -157 -158 159 160 -161 162
v 163 -164 165 -166 -167 -168 169 -170 171 -172 173 174 -175 -176 -177 -178
v -179 -180 -181 -182 183 184 185 -186 -187 188 -189 190 191 -192 -193 194 195
v 196 -197 -198 199 -200 0
c
c 2 iterations
c 2 restarts
c 12829 conflicts
c 0 adc conflicts
c 14987 decisions
c 2 fixed variables
c 126762 learned literals
c 26.8% deleted literals
c 643313 propagations
c 100.0% variables used
c 0.1 seconds in library
c 5.5 megaprops/second
c 3 simplifications
c 26 reductions
c 1.2 MB recycled
c 0.2 MB maximally allocated
c 0.1 seconds total run time
Command exited with non-zero status 10
0.11
